(set-logic ALL)
(declare-const k Int)
(declare-fun s () (_ BitVec k))
(declare-fun t () (_ BitVec k))
(assert (distinct (bvlshr s (bvlshr (_ bv0 k) (bvurem t (_ bv0 k)))) (bvlshr s (bvlshr (_ bv1 k) t))))
(check-sat)
